language ESSENCE' 1.0

letting jobs = 102
letting horizon = 806
letting resourcesRenew = 2
letting resourcesNonrenew = 2
letting resourceLimits = [21, 22, 595, 602]
letting successors = [[2, 3, 4, 5, 6, 7, 8, 9, 10, 11, 12, 14, 17], [37, 31, 30, 27, 23, 20, 18, 16], [41, 37, 27, 25, 23, 22, 18, 13], [28, 27, 24, 22, 20, 19, 15], [41, 37, 36, 30, 29, 25, 24, 22, 21, 20], [41, 37, 36, 30, 29, 27, 25, 24, 22, 20], [36, 34, 33, 30, 25, 24, 21, 20, 19], [41, 29, 27, 26, 25, 24, 23], [41, 37, 36, 34, 33, 30, 27, 24], [31, 30, 23, 22, 21, 19], [41, 37, 32, 31, 29, 25, 23], [37, 36, 31, 29, 27, 23], [40, 36, 34, 30, 29, 24, 21], [37, 34, 31, 29, 27, 26], [37, 36, 30, 23, 21], [41, 29, 25, 22, 21], [43, 38, 37, 36, 34, 33, 32, 24], [47, 43, 40, 39, 38, 36, 35, 34, 29], [49, 47, 43, 39, 35, 32, 29], [51, 49, 47, 45, 42, 40, 39, 38, 35], [49, 47, 46, 43, 42, 39, 38, 32], [51, 49, 46, 42, 38, 34, 33], [51, 49, 42, 35, 34, 33], [47, 42, 39, 31], [47, 45, 43, 42, 39, 38, 35], [51, 50, 48, 47, 42, 40, 36], [47, 43, 39, 38, 32], [60, 53, 51, 50, 49, 48, 47, 45, 42], [51, 50, 48, 46, 45, 44, 42], [53, 47, 46, 45, 43, 42], [51, 49, 45, 44, 35], [66, 60, 56, 52, 51, 50, 48, 45], [59, 48, 47, 44, 40], [60, 59, 57, 54, 52, 50, 44], [59, 57, 53, 50, 48, 46], [46, 45, 44], [59, 48, 44, 40], [59, 57, 48, 44], [66, 60, 59, 57, 56, 55, 48], [60, 56, 55, 54, 53], [66, 60, 59, 56, 48], [66, 56, 55, 54, 52], [66, 63, 50, 48], [65, 64, 56, 55, 53], [68, 59, 57, 55, 54], [77, 60, 58, 56, 54], [68, 67, 65, 64, 58, 57], [77, 68, 67, 58, 54], [77, 68, 64, 63, 61, 58], [64, 58, 55], [76, 69, 68, 65, 59], [77, 63, 58], [74, 68, 66, 58], [76, 75, 74, 72, 65, 64, 61], [77, 76, 75, 74, 67, 62, 61], [76, 75, 68, 63, 62], [77, 76, 74, 72, 61], [76, 75, 72, 71, 70, 62], [77, 75, 73, 70, 63], [76, 75, 74, 67, 64], [80, 79, 78, 73, 71, 70, 69], [85, 80, 79, 78, 73, 69], [74, 71, 67], [88, 85, 78, 73, 71], [88, 85, 78, 73, 71], [92, 90, 89, 85, 84, 81, 80, 79], [92, 90, 86, 84, 83, 81, 79], [92, 90, 89, 88, 85, 81, 80], [89, 88, 87, 86, 84, 82, 81], [91, 90, 89, 88, 86, 84, 82], [90, 89, 86, 84, 82, 81], [90, 87, 86, 84, 82, 81], [100, 90, 89, 87, 86, 84, 81], [91, 90, 88, 85, 80], [90, 89, 88, 85, 80], [100, 98, 92, 91, 90, 88, 85], [101, 92, 91, 90, 87, 85, 83], [94, 92, 91, 87, 86, 83], [100, 99, 95, 91, 88, 87], [101, 100, 94, 87, 86], [101, 98, 95, 94, 93, 91], [100, 98, 94, 92], [100, 99, 97, 93], [98, 95, 94], [86], [99, 97, 95], [98, 97, 93], [101, 96, 94], [94, 93], [97, 93], [97, 96], [97, 96], [96], [97], [96], [102], [102], [102], [102], [102], [102], []]
letting durations = [[0], [6, 8, 9], [2, 6, 9], [2, 6, 8], [3, 6, 9], [3, 3, 4], [2, 9, 10], [4, 5, 8], [1, 4, 10], [4, 8, 9], [1, 3, 9], [7, 7, 8], [5, 7, 8], [4, 10, 10], [1, 3, 10], [3, 7, 10], [1, 8, 10], [1, 4, 7], [4, 6, 9], [3, 3, 5], [7, 8, 10], [1, 4, 10], [4, 5, 6], [6, 9, 10], [3, 3, 5], [2, 4, 5], [4, 9, 10], [1, 3, 9], [5, 8, 9], [5, 6, 9], [4, 9, 10], [6, 7, 10], [1, 3, 6], [1, 3, 6], [3, 8, 9], [1, 2, 3], [1, 3, 7], [2, 2, 8], [2, 3, 4], [1, 3, 8], [5, 8, 9], [3, 7, 10], [3, 6, 8], [2, 6, 10], [3, 4, 7], [4, 8, 9], [7, 9, 10], [4, 5, 10], [2, 6, 6], [5, 5, 8], [2, 8, 10], [1, 4, 10], [1, 5, 9], [1, 6, 7], [2, 5, 10], [2, 10, 10], [8, 8, 9], [2, 3, 6], [3, 7, 8], [5, 9, 10], [1, 4, 7], [2, 3, 4], [1, 7, 8], [2, 7, 8], [1, 2, 4], [3, 8, 9], [1, 6, 7], [2, 3, 4], [3, 7, 10], [2, 8, 9], [5, 6, 7], [1, 5, 6], [4, 5, 10], [2, 2, 10], [2, 5, 7], [2, 2, 6], [2, 7, 10], [8, 8, 10], [3, 3, 9], [2, 3, 7], [4, 7, 7], [4, 7, 9], [3, 5, 8], [1, 3, 7], [5, 6, 9], [2, 5, 6], [7, 8, 9], [1, 6, 10], [2, 6, 7], [5, 5, 7], [3, 4, 7], [3, 6, 8], [5, 8, 9], [2, 3, 8], [2, 3, 8], [5, 7, 9], [4, 5, 6], [4, 5, 8], [3, 5, 6], [4, 6, 9], [2, 4, 5], [0]]
letting resourceUsage = [[[0, 0, 0, 0]], [[0, 4, 2, 7], [0, 4, 2, 5], [0, 4, 2, 3]], [[4, 0, 7, 5], [0, 4, 6, 3], [2, 0, 3, 2]], [[0, 4, 7, 8], [3, 0, 7, 6], [0, 4, 5, 5]], [[4, 0, 3, 1], [0, 3, 1, 1], [2, 0, 1, 1]], [[4, 0, 6, 9], [0, 1, 5, 8], [3, 0, 3, 6]], [[1, 0, 4, 6], [0, 2, 4, 5], [0, 1, 4, 5]], [[0, 4, 6, 8], [0, 4, 5, 6], [0, 4, 5, 5]], [[0, 5, 5, 8], [0, 4, 5, 6], [2, 0, 5, 6]], [[0, 5, 8, 6], [3, 0, 7, 4], [2, 0, 7, 3]], [[4, 0, 7, 5], [0, 1, 3, 3], [1, 0, 3, 3]], [[0, 2, 7, 3], [4, 0, 6, 2], [4, 0, 6, 1]], [[0, 5, 5, 10], [0, 4, 4, 6], [1, 0, 4, 4]], [[4, 0, 9, 8], [3, 0, 9, 7], [0, 2, 9, 5]], [[3, 0, 8, 8], [0, 1, 8, 5], [0, 1, 8, 4]], [[0, 5, 9, 2], [0, 3, 8, 2], [0, 3, 8, 1]], [[4, 0, 4, 9], [0, 3, 4, 7], [4, 0, 3, 4]], [[2, 0, 7, 5], [0, 2, 4, 4], [2, 0, 3, 4]], [[0, 4, 3, 7], [1, 0, 2, 7], [1, 0, 2, 6]], [[4, 0, 6, 10], [0, 4, 4, 10], [4, 0, 3, 10]], [[0, 3, 7, 8], [2, 0, 7, 7], [2, 0, 7, 5]], [[0, 3, 7, 7], [4, 0, 6, 5], [4, 0, 6, 4]], [[2, 0, 6, 6], [2, 0, 4, 5], [1, 0, 4, 5]], [[0, 3, 8, 8], [0, 1, 8, 7], [4, 0, 7, 5]], [[5, 0, 10, 8], [0, 5, 8, 5], [5, 0, 8, 5]], [[2, 0, 5, 6], [0, 3, 4, 4], [0, 3, 3, 3]], [[2, 0, 5, 9], [0, 4, 3, 6], [0, 3, 2, 4]], [[0, 5, 8, 3], [3, 0, 7, 2], [1, 0, 1, 2]], [[2, 0, 9, 7], [2, 0, 8, 4], [1, 0, 7, 1]], [[2, 0, 7, 9], [2, 0, 6, 7], [0, 2, 6, 4]], [[3, 0, 3, 5], [3, 0, 3, 4], [0, 3, 3, 4]], [[1, 0, 8, 8], [0, 4, 3, 6], [1, 0, 2, 5]], [[0, 4, 10, 4], [3, 0, 8, 3], [0, 3, 5, 3]], [[4, 0, 10, 7], [4, 0, 10, 4], [3, 0, 10, 2]], [[0, 4, 7, 6], [3, 0, 6, 5], [3, 0, 4, 4]], [[2, 0, 6, 5], [1, 0, 5, 5], [0, 4, 3, 5]], [[3, 0, 4, 7], [2, 0, 3, 5], [0, 3, 3, 4]], [[3, 0, 9, 8], [0, 4, 7, 7], [0, 4, 5, 6]], [[0, 2, 7, 8], [0, 2, 6, 6], [0, 2, 3, 6]], [[4, 0, 7, 5], [0, 2, 7, 5], [0, 1, 7, 5]], [[4, 0, 9, 4], [3, 0, 5, 3], [0, 1, 3, 3]], [[0, 5, 6, 9], [0, 4, 5, 4], [1, 0, 1, 2]], [[0, 4, 6, 7], [3, 0, 6, 7], [1, 0, 6, 7]], [[0, 3, 6, 7], [0, 2, 4, 3], [1, 0, 2, 2]], [[0, 3, 9, 8], [5, 0, 8, 6], [0, 3, 7, 3]], [[3, 0, 4, 3], [0, 3, 2, 2], [0, 3, 2, 1]], [[0, 2, 4, 9], [1, 0, 3, 9], [1, 0, 3, 8]], [[4, 0, 8, 8], [2, 0, 7, 8], [2, 0, 7, 5]], [[2, 0, 8, 7], [0, 3, 7, 6], [2, 0, 6, 4]], [[0, 5, 2, 1], [4, 0, 2, 1], [0, 2, 2, 1]], [[4, 0, 9, 8], [4, 0, 6, 5], [3, 0, 6, 4]], [[2, 0, 8, 9], [1, 0, 5, 8], [0, 3, 3, 7]], [[1, 0, 8, 9], [0, 3, 7, 6], [1, 0, 7, 6]], [[0, 3, 3, 6], [3, 0, 3, 5], [2, 0, 1, 5]], [[5, 0, 7, 3], [5, 0, 6, 3], [0, 3, 3, 2]], [[3, 0, 9, 8], [0, 5, 4, 6], [3, 0, 2, 4]], [[4, 0, 5, 9], [0, 4, 5, 8], [0, 3, 1, 8]], [[0, 3, 8, 3], [0, 3, 4, 2], [1, 0, 3, 1]], [[0, 4, 3, 6], [0, 4, 3, 4], [0, 3, 1, 2]], [[3, 0, 4, 6], [3, 0, 4, 5], [3, 0, 4, 4]], [[0, 4, 2, 5], [1, 0, 1, 2], [0, 2, 1, 1]], [[0, 1, 7, 7], [0, 1, 6, 6], [0, 1, 2, 6]], [[5, 0, 4, 10], [4, 0, 4, 9], [4, 0, 4, 8]], [[0, 3, 9, 8], [3, 0, 7, 8], [0, 2, 5, 8]], [[0, 3, 8, 9], [0, 3, 4, 7], [3, 0, 4, 7]], [[0, 4, 5, 9], [3, 0, 5, 5], [2, 0, 5, 4]], [[2, 0, 8, 7], [1, 0, 6, 6], [1, 0, 2, 5]], [[0, 5, 9, 3], [0, 5, 5, 3], [0, 5, 5, 2]], [[0, 5, 7, 6], [4, 0, 6, 4], [0, 4, 4, 3]], [[0, 4, 10, 8], [0, 4, 6, 6], [1, 0, 4, 6]], [[0, 4, 5, 10], [1, 0, 5, 6], [0, 2, 3, 6]], [[3, 0, 8, 6], [0, 3, 7, 5], [2, 0, 7, 5]], [[4, 0, 9, 7], [4, 0, 8, 4], [0, 3, 6, 3]], [[3, 0, 6, 8], [0, 4, 5, 8], [3, 0, 3, 8]], [[0, 5, 1, 4], [0, 5, 1, 3], [2, 0, 1, 4]], [[0, 3, 7, 8], [4, 0, 5, 8], [4, 0, 1, 8]], [[4, 0, 8, 4], [0, 1, 8, 2], [4, 0, 6, 1]], [[2, 0, 3, 10], [0, 2, 3, 10], [2, 0, 2, 10]], [[4, 0, 8, 9], [0, 2, 7, 7], [2, 0, 6, 7]], [[0, 3, 6, 3], [0, 2, 6, 2], [0, 2, 6, 1]], [[5, 0, 9, 8], [4, 0, 7, 6], [0, 2, 5, 6]], [[1, 0, 9, 5], [0, 2, 8, 4], [0, 2, 7, 3]], [[2, 0, 3, 3], [0, 3, 3, 3], [0, 2, 2, 3]], [[3, 0, 8, 6], [0, 2, 7, 5], [0, 2, 5, 5]], [[0, 3, 7, 1], [4, 0, 5, 1], [0, 1, 4, 1]], [[0, 3, 8, 6], [0, 3, 7, 4], [0, 3, 6, 2]], [[0, 3, 5, 6], [0, 3, 5, 5], [0, 3, 4, 4]], [[0, 3, 9, 9], [0, 2, 9, 8], [1, 0, 9, 7]], [[0, 3, 2, 4], [0, 3, 1, 3], [0, 3, 1, 2]], [[0, 3, 6, 9], [3, 0, 5, 4], [0, 3, 3, 2]], [[0, 2, 8, 8], [0, 2, 7, 6], [0, 2, 7, 5]], [[4, 0, 7, 7], [3, 0, 6, 6], [1, 0, 3, 6]], [[5, 0, 2, 6], [3, 0, 2, 3], [2, 0, 2, 2]], [[3, 0, 9, 6], [0, 3, 8, 4], [2, 0, 8, 4]], [[2, 0, 9, 10], [2, 0, 9, 7], [0, 3, 9, 2]], [[1, 0, 5, 10], [0, 2, 3, 6], [1, 0, 2, 3]], [[0, 5, 2, 7], [0, 3, 1, 5], [0, 1, 1, 5]], [[0, 3, 8, 5], [0, 2, 5, 5], [0, 1, 1, 3]], [[5, 0, 9, 4], [3, 0, 9, 4], [0, 2, 8, 4]], [[5, 0, 6, 5], [4, 0, 5, 5], [2, 0, 3, 5]], [[0, 5, 9, 5], [0, 3, 9, 4], [0, 3, 9, 3]], [[0, 0, 0, 0]]]
